p cnf 966 2481
51 -2 -1 0
-51 2 0
-51 1 0
52 -51 -3 0
-52 51 0
-52 3 0
53 -699 -4 0
-53 699 0
-53 4 0
54 -53 -700 0
-54 53 0
-54 700 0
55 -701 -702 0
-55 701 0
-55 702 0
56 -7 -699 0
-56 7 0
-56 699 0
57 -56 -703 0
-57 56 0
-57 703 0
58 -704 -55 0
-58 704 0
-58 55 0
59 -10 -705 0
-59 10 0
-59 705 0
60 -59 -706 0
-60 59 0
-60 706 0
61 -707 -58 0
-61 707 0
-61 58 0
62 -708 -1 0
-62 708 0
-62 1 0
63 -62 -709 0
-63 62 0
-63 709 0
64 -710 -61 0
-64 710 0
-64 61 0
65 -15 -14 0
-65 15 0
-65 14 0
66 -65 -16 0
-66 65 0
-66 16 0
67 -711 -64 0
-67 711 0
-67 64 0
68 -712 -4 0
-68 712 0
-68 4 0
69 -68 -713 0
-69 68 0
-69 713 0
70 -714 -67 0
-70 714 0
-70 67 0
71 -715 -716 0
-71 715 0
-71 716 0
72 -71 -717 0
-72 71 0
-72 717 0
73 -718 -70 0
-73 718 0
-73 70 0
74 -23 -22 0
-74 23 0
-74 22 0
75 -74 -719 0
-75 74 0
-75 719 0
76 -720 -73 0
-76 720 0
-76 73 0
77 -721 -708 0
-77 721 0
-77 708 0
78 -77 -703 0
-78 77 0
-78 703 0
79 -722 -76 0
-79 722 0
-79 76 0
80 -706 -1 0
-80 706 0
-80 1 0
81 -80 -15 0
-81 80 0
-81 15 0
82 -723 -79 0
-82 723 0
-82 79 0
83 -724 -22 0
-83 724 0
-83 22 0
84 -83 -10 0
-84 83 0
-84 10 0
85 -725 -82 0
-85 725 0
-85 82 0
86 -27 -726 0
-86 27 0
-86 726 0
87 -86 -703 0
-87 86 0
-87 703 0
88 -727 -85 0
-88 727 0
-88 85 0
89 -24 -3 0
-89 24 0
-89 3 0
90 -89 -28 0
-90 89 0
-90 28 0
91 -728 -88 0
-91 728 0
-91 88 0
92 -726 -729 0
-92 726 0
-92 729 0
93 -92 -29 0
-93 92 0
-93 29 0
94 -730 -91 0
-94 730 0
-94 91 0
95 -21 -731 0
-95 21 0
-95 731 0
96 -95 -700 0
-96 95 0
-96 700 0
97 -732 -94 0
-97 732 0
-97 94 0
98 -733 -716 0
-98 733 0
-98 716 0
99 -98 -6 0
-99 98 0
-99 6 0
100 -734 -97 0
-100 734 0
-100 97 0
101 -31 -731 0
-101 31 0
-101 731 0
102 -101 -32 0
-102 101 0
-102 32 0
103 -735 -100 0
-103 735 0
-103 100 0
104 -11 -705 0
-104 11 0
-104 705 0
105 -104 -15 0
-105 104 0
-105 15 0
106 -736 -103 0
-106 736 0
-106 103 0
107 -33 -708 0
-107 33 0
-107 708 0
108 -107 -31 0
-108 107 0
-108 31 0
109 -737 -106 0
-109 737 0
-109 106 0
110 -33 -738 0
-110 33 0
-110 738 0
111 -110 -719 0
-111 110 0
-111 719 0
112 -739 -109 0
-112 739 0
-112 109 0
113 -726 -724 0
-113 726 0
-113 724 0
114 -113 -740 0
-114 113 0
-114 740 0
115 -741 -112 0
-115 741 0
-115 112 0
116 -742 -31 0
-116 742 0
-116 31 0
117 -116 -35 0
-117 116 0
-117 35 0
118 -743 -115 0
-118 743 0
-118 115 0
119 -17 -744 0
-119 17 0
-119 744 0
120 -119 -6 0
-120 119 0
-120 6 0
121 -745 -118 0
-121 745 0
-121 118 0
122 -716 -9 0
-122 716 0
-122 9 0
123 -122 -746 0
-123 122 0
-123 746 0
124 -747 -121 0
-124 747 0
-124 121 0
125 -11 -748 0
-125 11 0
-125 748 0
126 -125 -15 0
-126 125 0
-126 15 0
127 -749 -124 0
-127 749 0
-127 124 0
128 -724 -738 0
-128 724 0
-128 738 0
129 -128 -29 0
-129 128 0
-129 29 0
130 -750 -127 0
-130 750 0
-130 127 0
131 -751 -712 0
-131 751 0
-131 712 0
132 -131 -38 0
-132 131 0
-132 38 0
133 -752 -130 0
-133 752 0
-133 130 0
134 -724 -753 0
-134 724 0
-134 753 0
135 -134 -754 0
-135 134 0
-135 754 0
136 -755 -133 0
-136 755 0
-136 133 0
137 -40 -13 0
-137 40 0
-137 13 0
138 -137 -5 0
-138 137 0
-138 5 0
139 -756 -136 0
-139 756 0
-139 136 0
140 -757 -2 0
-140 757 0
-140 2 0
141 -140 -758 0
-141 140 0
-141 758 0
142 -759 -139 0
-142 759 0
-142 139 0
143 -31 -733 0
-143 31 0
-143 733 0
144 -143 -717 0
-144 143 0
-144 717 0
145 -760 -142 0
-145 760 0
-145 142 0
146 -726 -7 0
-146 726 0
-146 7 0
147 -146 -15 0
-147 146 0
-147 15 0
148 -761 -145 0
-148 761 0
-148 145 0
149 -43 -40 0
-149 43 0
-149 40 0
150 -149 -7 0
-150 149 0
-150 7 0
151 -762 -148 0
-151 762 0
-151 148 0
152 -30 -25 0
-152 30 0
-152 25 0
153 -152 -758 0
-153 152 0
-153 758 0
154 -763 -151 0
-154 763 0
-154 151 0
155 -22 -705 0
-155 22 0
-155 705 0
156 -155 -33 0
-156 155 0
-156 33 0
157 -764 -154 0
-157 764 0
-157 154 0
158 -742 -765 0
-158 742 0
-158 765 0
159 -158 -719 0
-159 158 0
-159 719 0
160 -766 -157 0
-160 766 0
-160 157 0
161 -34 -23 0
-161 34 0
-161 23 0
162 -161 -31 0
-162 161 0
-162 31 0
163 -767 -160 0
-163 767 0
-163 160 0
164 -44 -23 0
-164 44 0
-164 23 0
165 -164 -757 0
-165 164 0
-165 757 0
166 -768 -163 0
-166 768 0
-166 163 0
167 -39 -8 0
-167 39 0
-167 8 0
168 -167 -6 0
-168 167 0
-168 6 0
169 -769 -166 0
-169 769 0
-169 166 0
170 -726 -19 0
-170 726 0
-170 19 0
171 -170 -770 0
-171 170 0
-171 770 0
172 -771 -169 0
-172 771 0
-172 169 0
173 -38 -7 0
-173 38 0
-173 7 0
174 -173 -772 0
-174 173 0
-174 772 0
175 -773 -172 0
-175 773 0
-175 172 0
176 -20 -716 0
-176 20 0
-176 716 0
177 -176 -33 0
-177 176 0
-177 33 0
178 -774 -175 0
-178 774 0
-178 175 0
179 -45 -20 0
-179 45 0
-179 20 0
180 -179 -32 0
-180 179 0
-180 32 0
181 -775 -178 0
-181 775 0
-181 178 0
182 -751 -738 0
-182 751 0
-182 738 0
183 -182 -699 0
-183 182 0
-183 699 0
184 -776 -181 0
-184 776 0
-184 181 0
185 -41 -1 0
-185 41 0
-185 1 0
186 -185 -10 0
-186 185 0
-186 10 0
187 -777 -184 0
-187 777 0
-187 184 0
188 -778 -12 0
-188 778 0
-188 12 0
189 -188 -709 0
-189 188 0
-189 709 0
190 -779 -187 0
-190 779 0
-190 187 0
191 -46 -4 0
-191 46 0
-191 4 0
192 -191 -35 0
-192 191 0
-192 35 0
193 -780 -190 0
-193 780 0
-193 190 0
194 -781 -36 0
-194 781 0
-194 36 0
195 -194 -18 0
-195 194 0
-195 18 0
196 -782 -193 0
-196 782 0
-196 193 0
197 -46 -17 0
-197 46 0
-197 17 0
198 -197 -783 0
-198 197 0
-198 783 0
199 -784 -196 0
-199 784 0
-199 196 0
200 -17 -8 0
-200 17 0
-200 8 0
201 -200 -16 0
-201 200 0
-201 16 0
202 -785 -199 0
-202 785 0
-202 199 0
203 -48 -23 0
-203 48 0
-203 23 0
204 -203 -32 0
-204 203 0
-204 32 0
205 -786 -202 0
-205 786 0
-205 202 0
206 -22 -1 0
-206 22 0
-206 1 0
207 -206 -712 0
-207 206 0
-207 712 0
208 -787 -205 0
-208 787 0
-208 205 0
209 -40 -21 0
-209 40 0
-209 21 0
210 -209 -788 0
-210 209 0
-210 788 0
211 -789 -208 0
-211 789 0
-211 208 0
212 -3 -731 0
-212 3 0
-212 731 0
213 -212 -32 0
-213 212 0
-213 32 0
214 -790 -211 0
-214 790 0
-214 211 0
215 -709 -1 0
-215 709 0
-215 1 0
216 -215 -765 0
-216 215 0
-216 765 0
217 -791 -214 0
-217 791 0
-217 214 0
218 -49 -36 0
-218 49 0
-218 36 0
219 -218 -6 0
-219 218 0
-219 6 0
220 -792 -217 0
-220 792 0
-220 217 0
221 -28 -25 0
-221 28 0
-221 25 0
222 -221 -8 0
-222 221 0
-222 8 0
223 -793 -220 0
-223 793 0
-223 220 0
224 -794 -24 0
-224 794 0
-224 24 0
225 -224 -795 0
-225 224 0
-225 795 0
226 -796 -223 0
-226 796 0
-226 223 0
227 -26 -797 0
-227 26 0
-227 797 0
228 -227 -798 0
-228 227 0
-228 798 0
229 -799 -226 0
-229 799 0
-229 226 0
230 -49 -765 0
-230 49 0
-230 765 0
231 -230 -27 0
-231 230 0
-231 27 0
232 -800 -229 0
-232 800 0
-232 229 0
233 -801 -26 0
-233 801 0
-233 26 0
234 -233 -27 0
-234 233 0
-234 27 0
235 -802 -232 0
-235 802 0
-235 232 0
236 -36 -798 0
-236 36 0
-236 798 0
237 -236 -10 0
-237 236 0
-237 10 0
238 -803 -235 0
-238 803 0
-238 235 0
239 -726 -23 0
-239 726 0
-239 23 0
240 -239 -17 0
-240 239 0
-240 17 0
241 -804 -238 0
-241 804 0
-241 238 0
242 -19 -17 0
-242 19 0
-242 17 0
243 -242 -781 0
-243 242 0
-243 781 0
244 -805 -241 0
-244 805 0
-244 241 0
245 -49 -724 0
-245 49 0
-245 724 0
246 -245 -709 0
-246 245 0
-246 709 0
247 -806 -244 0
-247 806 0
-247 244 0
248 -42 -807 0
-248 42 0
-248 807 0
249 -248 -28 0
-249 248 0
-249 28 0
250 -808 -247 0
-250 808 0
-250 247 0
251 -36 -797 0
-251 36 0
-251 797 0
252 -251 -6 0
-252 251 0
-252 6 0
253 -809 -250 0
-253 809 0
-253 250 0
254 -24 -716 0
-254 24 0
-254 716 0
255 -254 -17 0
-255 254 0
-255 17 0
256 -810 -253 0
-256 810 0
-256 253 0
257 -22 -738 0
-257 22 0
-257 738 0
258 -257 -48 0
-258 257 0
-258 48 0
259 -811 -256 0
-259 811 0
-259 256 0
260 -795 -699 0
-260 795 0
-260 699 0
261 -260 -703 0
-261 260 0
-261 703 0
262 -812 -259 0
-262 812 0
-262 259 0
263 -42 -754 0
-263 42 0
-263 754 0
264 -263 -50 0
-264 263 0
-264 50 0
265 -813 -262 0
-265 813 0
-265 262 0
266 -35 -705 0
-266 35 0
-266 705 0
267 -266 -27 0
-267 266 0
-267 27 0
268 -814 -265 0
-268 814 0
-268 265 0
269 -11 -729 0
-269 11 0
-269 729 0
270 -269 -815 0
-270 269 0
-270 815 0
271 -816 -268 0
-271 816 0
-271 268 0
272 -801 -19 0
-272 801 0
-272 19 0
273 -272 -772 0
-273 272 0
-273 772 0
274 -817 -271 0
-274 817 0
-274 271 0
275 -757 -5 0
-275 757 0
-275 5 0
276 -275 -10 0
-276 275 0
-276 10 0
277 -818 -274 0
-277 818 0
-277 274 0
278 -705 -731 0
-278 705 0
-278 731 0
279 -278 -798 0
-279 278 0
-279 798 0
280 -819 -277 0
-280 819 0
-280 277 0
281 -754 -770 0
-281 754 0
-281 770 0
282 -281 -18 0
-282 281 0
-282 18 0
283 -820 -280 0
-283 820 0
-283 280 0
284 -770 -726 0
-284 770 0
-284 726 0
285 -284 -32 0
-285 284 0
-285 32 0
286 -821 -283 0
-286 821 0
-286 283 0
287 -822 -34 0
-287 822 0
-287 34 0
288 -287 -8 0
-288 287 0
-288 8 0
289 -823 -286 0
-289 823 0
-289 286 0
290 -26 -22 0
-290 26 0
-290 22 0
291 -290 -770 0
-291 290 0
-291 770 0
292 -824 -289 0
-292 824 0
-292 289 0
293 -715 -708 0
-293 715 0
-293 708 0
294 -293 -795 0
-294 293 0
-294 795 0
295 -825 -292 0
-295 825 0
-295 292 0
296 -726 -712 0
-296 726 0
-296 712 0
297 -296 -757 0
-297 296 0
-297 757 0
298 -826 -295 0
-298 826 0
-298 295 0
299 -827 -22 0
-299 827 0
-299 22 0
300 -299 -795 0
-300 299 0
-300 795 0
301 -828 -298 0
-301 828 0
-301 298 0
302 -829 -719 0
-302 829 0
-302 719 0
303 -302 -15 0
-303 302 0
-303 15 0
304 -830 -301 0
-304 830 0
-304 301 0
305 -36 -17 0
-305 36 0
-305 17 0
306 -305 -38 0
-306 305 0
-306 38 0
307 -831 -304 0
-307 831 0
-307 304 0
308 -43 -770 0
-308 43 0
-308 770 0
309 -308 -719 0
-309 308 0
-309 719 0
310 -832 -307 0
-310 832 0
-310 307 0
311 -733 -9 0
-311 733 0
-311 9 0
312 -311 -42 0
-312 311 0
-312 42 0
313 -833 -310 0
-313 833 0
-313 310 0
314 -834 -44 0
-314 834 0
-314 44 0
315 -314 -38 0
-315 314 0
-315 38 0
316 -835 -313 0
-316 835 0
-316 313 0
317 -20 -19 0
-317 20 0
-317 19 0
318 -317 -754 0
-318 317 0
-318 754 0
319 -836 -316 0
-319 836 0
-319 316 0
320 -26 -709 0
-320 26 0
-320 709 0
321 -320 -40 0
-321 320 0
-321 40 0
322 -837 -319 0
-322 837 0
-322 319 0
323 -43 -798 0
-323 43 0
-323 798 0
324 -323 -770 0
-324 323 0
-324 770 0
325 -838 -322 0
-325 838 0
-325 322 0
326 -829 -1 0
-326 829 0
-326 1 0
327 -326 -738 0
-327 326 0
-327 738 0
328 -839 -325 0
-328 839 0
-328 325 0
329 -770 -801 0
-329 770 0
-329 801 0
330 -329 -16 0
-330 329 0
-330 16 0
331 -840 -328 0
-331 840 0
-331 328 0
332 -43 -20 0
-332 43 0
-332 20 0
333 -332 -822 0
-333 332 0
-333 822 0
334 -841 -331 0
-334 841 0
-334 331 0
335 -834 -26 0
-335 834 0
-335 26 0
336 -335 -7 0
-336 335 0
-336 7 0
337 -842 -334 0
-337 842 0
-337 334 0
338 -49 -23 0
-338 49 0
-338 23 0
339 -338 -45 0
-339 338 0
-339 45 0
340 -843 -337 0
-340 843 0
-340 337 0
341 -721 -23 0
-341 721 0
-341 23 0
342 -341 -43 0
-342 341 0
-342 43 0
343 -844 -340 0
-343 844 0
-343 340 0
344 -781 -38 0
-344 781 0
-344 38 0
345 -344 -32 0
-345 344 0
-345 32 0
346 -845 -343 0
-346 845 0
-346 343 0
347 -33 -13 0
-347 33 0
-347 13 0
348 -347 -815 0
-348 347 0
-348 815 0
349 -846 -346 0
-349 846 0
-349 346 0
350 -13 -738 0
-350 13 0
-350 738 0
351 -350 -8 0
-351 350 0
-351 8 0
352 -847 -349 0
-352 847 0
-352 349 0
353 -783 -797 0
-353 783 0
-353 797 0
354 -353 -744 0
-354 353 0
-354 744 0
355 -848 -352 0
-355 848 0
-355 352 0
356 -45 -35 0
-356 45 0
-356 35 0
357 -356 -795 0
-357 356 0
-357 795 0
358 -849 -355 0
-358 849 0
-358 355 0
359 -827 -699 0
-359 827 0
-359 699 0
360 -359 -706 0
-360 359 0
-360 706 0
361 -850 -358 0
-361 850 0
-361 358 0
362 -740 -2 0
-362 740 0
-362 2 0
363 -362 -21 0
-363 362 0
-363 21 0
364 -851 -361 0
-364 851 0
-364 361 0
365 -742 -26 0
-365 742 0
-365 26 0
366 -365 -757 0
-366 365 0
-366 757 0
367 -852 -364 0
-367 852 0
-367 364 0
368 -746 -14 0
-368 746 0
-368 14 0
369 -368 -699 0
-369 368 0
-369 699 0
370 -853 -367 0
-370 853 0
-370 367 0
371 -827 -742 0
-371 827 0
-371 742 0
372 -371 -738 0
-372 371 0
-372 738 0
373 -854 -370 0
-373 854 0
-373 370 0
374 -855 -4 0
-374 855 0
-374 4 0
375 -374 -700 0
-375 374 0
-375 700 0
376 -856 -373 0
-376 856 0
-376 373 0
377 -798 -715 0
-377 798 0
-377 715 0
378 -377 -744 0
-378 377 0
-378 744 0
379 -857 -376 0
-379 857 0
-379 376 0
380 -43 -9 0
-380 43 0
-380 9 0
381 -380 -39 0
-381 380 0
-381 39 0
382 -858 -379 0
-382 858 0
-382 379 0
383 -19 -712 0
-383 19 0
-383 712 0
384 -383 -5 0
-384 383 0
-384 5 0
385 -859 -382 0
-385 859 0
-385 382 0
386 -37 -23 0
-386 37 0
-386 23 0
387 -386 -744 0
-387 386 0
-387 744 0
388 -860 -385 0
-388 860 0
-388 385 0
389 -746 -721 0
-389 746 0
-389 721 0
390 -389 -765 0
-390 389 0
-390 765 0
391 -861 -388 0
-391 861 0
-391 388 0
392 -11 -740 0
-392 11 0
-392 740 0
393 -392 -795 0
-393 392 0
-393 795 0
394 -862 -391 0
-394 862 0
-394 391 0
395 -742 -712 0
-395 742 0
-395 712 0
396 -395 -28 0
-396 395 0
-396 28 0
397 -863 -394 0
-397 863 0
-397 394 0
398 -37 -807 0
-398 37 0
-398 807 0
399 -398 -50 0
-399 398 0
-399 50 0
400 -864 -397 0
-400 864 0
-400 397 0
401 -815 -772 0
-401 815 0
-401 772 0
402 -401 -703 0
-402 401 0
-402 703 0
403 -865 -400 0
-403 865 0
-403 400 0
404 -731 -729 0
-404 731 0
-404 729 0
405 -404 -20 0
-405 404 0
-405 20 0
406 -866 -403 0
-406 866 0
-406 403 0
407 -798 -22 0
-407 798 0
-407 22 0
408 -407 -16 0
-408 407 0
-408 16 0
409 -867 -406 0
-409 867 0
-409 406 0
410 -46 -705 0
-410 46 0
-410 705 0
411 -410 -14 0
-411 410 0
-411 14 0
412 -868 -409 0
-412 868 0
-412 409 0
413 -829 -32 0
-413 829 0
-413 32 0
414 -413 -8 0
-414 413 0
-414 8 0
415 -869 -412 0
-415 869 0
-415 412 0
416 -834 -2 0
-416 834 0
-416 2 0
417 -416 -788 0
-417 416 0
-417 788 0
418 -870 -415 0
-418 870 0
-418 415 0
419 -17 -706 0
-419 17 0
-419 706 0
420 -419 -29 0
-420 419 0
-420 29 0
421 -871 -418 0
-421 871 0
-421 418 0
422 -44 -731 0
-422 44 0
-422 731 0
423 -422 -717 0
-423 422 0
-423 717 0
424 -872 -421 0
-424 872 0
-424 421 0
425 -733 -729 0
-425 733 0
-425 729 0
426 -425 -829 0
-426 425 0
-426 829 0
427 -873 -424 0
-427 873 0
-427 424 0
428 -49 -43 0
-428 49 0
-428 43 0
429 -428 -3 0
-429 428 0
-429 3 0
430 -874 -427 0
-430 874 0
-430 427 0
431 -26 -20 0
-431 26 0
-431 20 0
432 -431 -11 0
-432 431 0
-432 11 0
433 -875 -430 0
-433 875 0
-433 430 0
434 -778 -705 0
-434 778 0
-434 705 0
435 -434 -21 0
-435 434 0
-435 21 0
436 -876 -433 0
-436 876 0
-436 433 0
437 -855 -13 0
-437 855 0
-437 13 0
438 -437 -32 0
-438 437 0
-438 32 0
439 -877 -436 0
-439 877 0
-439 436 0
440 -31 -7 0
-440 31 0
-440 7 0
441 -440 -21 0
-441 440 0
-441 21 0
442 -878 -439 0
-442 878 0
-442 439 0
443 -754 -699 0
-443 754 0
-443 699 0
444 -443 -27 0
-444 443 0
-444 27 0
445 -879 -442 0
-445 879 0
-445 442 0
446 -44 -25 0
-446 44 0
-446 25 0
447 -446 -50 0
-447 446 0
-447 50 0
448 -880 -445 0
-448 880 0
-448 445 0
449 -834 -45 0
-449 834 0
-449 45 0
450 -449 -28 0
-450 449 0
-450 28 0
451 -881 -448 0
-451 881 0
-451 448 0
452 -797 -715 0
-452 797 0
-452 715 0
453 -452 -17 0
-453 452 0
-453 17 0
454 -882 -451 0
-454 882 0
-454 451 0
455 -41 -7 0
-455 41 0
-455 7 0
456 -455 -744 0
-456 455 0
-456 744 0
457 -883 -454 0
-457 883 0
-457 454 0
458 -20 -708 0
-458 20 0
-458 708 0
459 -458 -29 0
-459 458 0
-459 29 0
460 -884 -457 0
-460 884 0
-460 457 0
461 -797 -708 0
-461 797 0
-461 708 0
462 -461 -6 0
-462 461 0
-462 6 0
463 -885 -460 0
-463 885 0
-463 460 0
464 -708 -740 0
-464 708 0
-464 740 0
465 -464 -50 0
-465 464 0
-465 50 0
466 -886 -463 0
-466 886 0
-466 463 0
467 -770 -748 0
-467 770 0
-467 748 0
468 -467 -795 0
-468 467 0
-468 795 0
469 -887 -466 0
-469 887 0
-469 466 0
470 -827 -751 0
-470 827 0
-470 751 0
471 -470 -703 0
-471 470 0
-471 703 0
472 -888 -469 0
-472 888 0
-472 469 0
473 -834 -22 0
-473 834 0
-473 22 0
474 -473 -47 0
-474 473 0
-474 47 0
475 -889 -472 0
-475 889 0
-475 472 0
476 -27 -22 0
-476 27 0
-476 22 0
477 -476 -703 0
-477 476 0
-477 703 0
478 -890 -475 0
-478 890 0
-478 475 0
479 -22 -14 0
-479 22 0
-479 14 0
480 -479 -703 0
-480 479 0
-480 703 0
481 -891 -478 0
-481 891 0
-481 478 0
482 -37 -705 0
-482 37 0
-482 705 0
483 -482 -5 0
-483 482 0
-483 5 0
484 -892 -481 0
-484 892 0
-484 481 0
485 -34 -12 0
-485 34 0
-485 12 0
486 -485 -43 0
-486 485 0
-486 43 0
487 -893 -484 0
-487 893 0
-487 484 0
488 -855 -19 0
-488 855 0
-488 19 0
489 -488 -748 0
-489 488 0
-489 748 0
490 -894 -487 0
-490 894 0
-490 487 0
491 -34 -4 0
-491 34 0
-491 4 0
492 -491 -35 0
-492 491 0
-492 35 0
493 -895 -490 0
-493 895 0
-493 490 0
494 -44 -7 0
-494 44 0
-494 7 0
495 -494 -717 0
-495 494 0
-495 717 0
496 -896 -493 0
-496 896 0
-496 493 0
497 -822 -700 0
-497 822 0
-497 700 0
498 -497 -16 0
-498 497 0
-498 16 0
499 -897 -496 0
-499 897 0
-499 496 0
500 -42 -17 0
-500 42 0
-500 17 0
501 -500 -16 0
-501 500 0
-501 16 0
502 -898 -499 0
-502 898 0
-502 499 0
503 -41 -726 0
-503 41 0
-503 726 0
504 -503 -45 0
-504 503 0
-504 45 0
505 -899 -502 0
-505 899 0
-505 502 0
506 -44 -24 0
-506 44 0
-506 24 0
507 -506 -751 0
-507 506 0
-507 751 0
508 -900 -505 0
-508 900 0
-508 505 0
509 -305 -50 0
-509 305 0
-509 50 0
510 -901 -508 0
-510 901 0
-510 508 0
511 -754 -3 0
-511 754 0
-511 3 0
512 -511 -744 0
-512 511 0
-512 744 0
513 -902 -510 0
-513 902 0
-513 510 0
514 -829 -746 0
-514 829 0
-514 746 0
515 -514 -21 0
-515 514 0
-515 21 0
516 -903 -513 0
-516 903 0
-516 513 0
517 -36 -738 0
-517 36 0
-517 738 0
518 -517 -744 0
-518 517 0
-518 744 0
519 -904 -516 0
-519 904 0
-519 516 0
520 -38 -778 0
-520 38 0
-520 778 0
521 -520 -39 0
-521 520 0
-521 39 0
522 -905 -519 0
-522 905 0
-522 519 0
523 -15 -708 0
-523 15 0
-523 708 0
524 -523 -32 0
-524 523 0
-524 32 0
525 -906 -522 0
-525 906 0
-525 522 0
526 -45 -25 0
-526 45 0
-526 25 0
527 -526 -748 0
-527 526 0
-527 748 0
528 -907 -525 0
-528 907 0
-528 525 0
529 -34 -726 0
-529 34 0
-529 726 0
530 -529 -35 0
-530 529 0
-530 35 0
531 -908 -528 0
-531 908 0
-531 528 0
532 -260 -783 0
-532 260 0
-532 783 0
533 -909 -531 0
-533 909 0
-533 531 0
534 -46 -39 0
-534 46 0
-534 39 0
535 -534 -28 0
-535 534 0
-535 28 0
536 -910 -533 0
-536 910 0
-536 533 0
537 -753 -717 0
-537 753 0
-537 717 0
538 -537 -713 0
-538 537 0
-538 713 0
539 -911 -536 0
-539 911 0
-539 536 0
540 -822 -753 0
-540 822 0
-540 753 0
541 -540 -719 0
-541 540 0
-541 719 0
542 -912 -539 0
-542 912 0
-542 539 0
543 -50 -801 0
-543 50 0
-543 801 0
544 -543 -16 0
-544 543 0
-544 16 0
545 -913 -542 0
-545 913 0
-545 542 0
546 -224 -834 0
-546 224 0
-546 834 0
547 -914 -545 0
-547 914 0
-547 545 0
548 -44 -27 0
-548 44 0
-548 27 0
549 -548 -18 0
-549 548 0
-549 18 0
550 -915 -547 0
-550 915 0
-550 547 0
551 -717 -738 0
-551 717 0
-551 738 0
552 -551 -29 0
-552 551 0
-552 29 0
553 -916 -550 0
-553 916 0
-553 550 0
554 -47 -740 0
-554 47 0
-554 740 0
555 -554 -11 0
-555 554 0
-555 11 0
556 -917 -553 0
-556 917 0
-556 553 0
557 -3 -729 0
-557 3 0
-557 729 0
558 -557 -772 0
-558 557 0
-558 772 0
559 -918 -556 0
-559 918 0
-559 556 0
560 -795 -716 0
-560 795 0
-560 716 0
561 -560 -48 0
-561 560 0
-561 48 0
562 -919 -559 0
-562 919 0
-562 559 0
563 -717 -17 0
-563 717 0
-563 17 0
564 -563 -50 0
-564 563 0
-564 50 0
565 -920 -562 0
-565 920 0
-565 562 0
566 -33 -25 0
-566 33 0
-566 25 0
567 -566 -738 0
-567 566 0
-567 738 0
568 -921 -565 0
-568 921 0
-568 565 0
569 -353 -50 0
-569 353 0
-569 50 0
570 -922 -568 0
-570 922 0
-570 568 0
571 -751 -724 0
-571 751 0
-571 724 0
572 -571 -798 0
-572 571 0
-572 798 0
573 -923 -570 0
-573 923 0
-573 570 0
574 -22 -729 0
-574 22 0
-574 729 0
575 -574 -40 0
-575 574 0
-575 40 0
576 -924 -573 0
-576 924 0
-576 573 0
577 -50 -726 0
-577 50 0
-577 726 0
578 -577 -788 0
-578 577 0
-578 788 0
579 -925 -576 0
-579 925 0
-579 576 0
580 -23 -740 0
-580 23 0
-580 740 0
581 -580 -8 0
-581 580 0
-581 8 0
582 -926 -579 0
-582 926 0
-582 579 0
583 -34 -22 0
-583 34 0
-583 22 0
584 -583 -3 0
-584 583 0
-584 3 0
585 -927 -582 0
-585 927 0
-585 582 0
586 -19 -729 0
-586 19 0
-586 729 0
587 -586 -37 0
-587 586 0
-587 37 0
588 -928 -585 0
-588 928 0
-588 585 0
589 -13 -8 0
-589 13 0
-589 8 0
590 -589 -18 0
-590 589 0
-590 18 0
591 -929 -588 0
-591 929 0
-591 588 0
592 -45 -5 0
-592 45 0
-592 5 0
593 -592 -719 0
-593 592 0
-593 719 0
594 -930 -591 0
-594 930 0
-594 591 0
595 -797 -17 0
-595 797 0
-595 17 0
596 -595 -37 0
-596 595 0
-596 37 0
597 -931 -594 0
-597 931 0
-597 594 0
598 -46 -24 0
-598 46 0
-598 24 0
599 -598 -21 0
-599 598 0
-599 21 0
600 -932 -597 0
-600 932 0
-600 597 0
601 -40 -30 0
-601 40 0
-601 30 0
602 -601 -4 0
-602 601 0
-602 4 0
603 -933 -600 0
-603 933 0
-603 600 0
604 -781 -20 0
-604 781 0
-604 20 0
605 -604 -35 0
-605 604 0
-605 35 0
606 -934 -603 0
-606 934 0
-606 603 0
607 -758 -798 0
-607 758 0
-607 798 0
608 -607 -39 0
-608 607 0
-608 39 0
609 -935 -606 0
-609 935 0
-609 606 0
610 -733 -719 0
-610 733 0
-610 719 0
611 -610 -8 0
-611 610 0
-611 8 0
612 -936 -609 0
-612 936 0
-612 609 0
613 -822 -26 0
-613 822 0
-613 26 0
614 -613 -16 0
-614 613 0
-614 16 0
615 -937 -612 0
-615 937 0
-615 612 0
616 -781 -2 0
-616 781 0
-616 2 0
617 -616 -744 0
-617 616 0
-617 744 0
618 -938 -615 0
-618 938 0
-618 615 0
619 -801 -9 0
-619 801 0
-619 9 0
620 -619 -713 0
-620 619 0
-620 713 0
621 -939 -618 0
-621 939 0
-621 618 0
622 -37 -726 0
-622 37 0
-622 726 0
623 -622 -50 0
-623 622 0
-623 50 0
624 -940 -621 0
-624 940 0
-624 621 0
625 -11 -10 0
-625 11 0
-625 10 0
626 -625 -8 0
-626 625 0
-626 8 0
627 -941 -624 0
-627 941 0
-627 624 0
628 -757 -29 0
-628 757 0
-628 29 0
629 -628 -48 0
-629 628 0
-629 48 0
630 -942 -627 0
-630 942 0
-630 627 0
631 -781 -726 0
-631 781 0
-631 726 0
632 -631 -29 0
-632 631 0
-632 29 0
633 -943 -630 0
-633 943 0
-633 630 0
634 -38 -746 0
-634 38 0
-634 746 0
635 -634 -28 0
-635 634 0
-635 28 0
636 -944 -633 0
-636 944 0
-636 633 0
637 -721 -17 0
-637 721 0
-637 17 0
638 -637 -32 0
-638 637 0
-638 32 0
639 -945 -636 0
-639 945 0
-639 636 0
640 -827 -38 0
-640 827 0
-640 38 0
641 -640 -39 0
-641 640 0
-641 39 0
642 -946 -639 0
-642 946 0
-642 639 0
643 -712 -14 0
-643 712 0
-643 14 0
644 -643 -713 0
-644 643 0
-644 713 0
645 -947 -642 0
-645 947 0
-645 642 0
646 -31 -717 0
-646 31 0
-646 717 0
647 -646 -15 0
-647 646 0
-647 15 0
648 -948 -645 0
-648 948 0
-648 645 0
649 -42 -709 0
-649 42 0
-649 709 0
650 -649 -3 0
-650 649 0
-650 3 0
651 -949 -648 0
-651 949 0
-651 648 0
652 -829 -724 0
-652 829 0
-652 724 0
653 -652 -38 0
-653 652 0
-653 38 0
654 -950 -651 0
-654 950 0
-654 651 0
655 -29 -719 0
-655 29 0
-655 719 0
656 -655 -8 0
-656 655 0
-656 8 0
657 -951 -654 0
-657 951 0
-657 654 0
658 -59 -28 0
-658 59 0
-658 28 0
659 -952 -657 0
-659 952 0
-659 657 0
660 -44 -797 0
-660 44 0
-660 797 0
661 -660 -827 0
-661 660 0
-661 827 0
662 -953 -659 0
-662 953 0
-662 659 0
663 -715 -2 0
-663 715 0
-663 2 0
664 -663 -6 0
-664 663 0
-664 6 0
665 -954 -662 0
-665 954 0
-665 662 0
666 -34 -721 0
-666 34 0
-666 721 0
667 -666 -6 0
-667 666 0
-667 6 0
668 -955 -665 0
-668 955 0
-668 665 0
669 -754 -742 0
-669 754 0
-669 742 0
670 -669 -6 0
-670 669 0
-670 6 0
671 -956 -668 0
-671 956 0
-671 668 0
672 -48 -30 0
-672 48 0
-672 30 0
673 -672 -788 0
-673 672 0
-673 788 0
674 -957 -671 0
-674 957 0
-674 671 0
675 -721 -753 0
-675 721 0
-675 753 0
676 -675 -33 0
-676 675 0
-676 33 0
677 -958 -674 0
-677 958 0
-677 674 0
678 -46 -15 0
-678 46 0
-678 15 0
679 -678 -6 0
-679 678 0
-679 6 0
680 -959 -677 0
-680 959 0
-680 677 0
681 -31 -6 0
-681 31 0
-681 6 0
682 -681 -16 0
-682 681 0
-682 16 0
683 -960 -680 0
-683 960 0
-683 680 0
684 -751 -35 0
-684 751 0
-684 35 0
685 -684 -8 0
-685 684 0
-685 8 0
686 -961 -683 0
-686 961 0
-686 683 0
687 -42 -41 0
-687 42 0
-687 41 0
688 -687 -35 0
-688 687 0
-688 35 0
689 -962 -686 0
-689 962 0
-689 686 0
690 -41 -729 0
-690 41 0
-690 729 0
691 -690 -963 0
-691 690 0
-691 963 0
692 -964 -689 0
-692 964 0
-692 689 0
693 -758 -712 0
-693 758 0
-693 712 0
694 -693 -751 0
-694 693 0
-694 751 0
695 -965 -692 0
-695 965 0
-695 692 0
696 -742 -716 0
-696 742 0
-696 716 0
697 -696 -801 0
-697 696 0
-697 801 0
698 -966 -695 0
-698 966 0
-698 695 0
-699 -5 0
699 5 0
-700 -6 0
700 6 0
-701 -54 0
701 54 0
-702 -52 0
702 52 0
-703 -8 0
703 8 0
-704 -57 0
704 57 0
-705 -9 0
705 9 0
-706 -11 0
706 11 0
-707 -60 0
707 60 0
-708 -12 0
708 12 0
-709 -13 0
709 13 0
-710 -63 0
710 63 0
-711 -66 0
711 66 0
-712 -17 0
712 17 0
-713 -18 0
713 18 0
-714 -69 0
714 69 0
-715 -20 0
715 20 0
-716 -19 0
716 19 0
-717 -21 0
717 21 0
-718 -72 0
718 72 0
-719 -3 0
719 3 0
-720 -75 0
720 75 0
-721 -24 0
721 24 0
-722 -78 0
722 78 0
-723 -81 0
723 81 0
-724 -25 0
724 25 0
-725 -84 0
725 84 0
-726 -26 0
726 26 0
-727 -87 0
727 87 0
-728 -90 0
728 90 0
-729 -1 0
729 1 0
-730 -93 0
730 93 0
-731 -2 0
731 2 0
-732 -96 0
732 96 0
-733 -30 0
733 30 0
-734 -99 0
734 99 0
-735 -102 0
735 102 0
-736 -105 0
736 105 0
-737 -108 0
737 108 0
-738 -4 0
738 4 0
-739 -111 0
739 111 0
-740 -7 0
740 7 0
-741 -114 0
741 114 0
-742 -34 0
742 34 0
-743 -117 0
743 117 0
-744 -15 0
744 15 0
-745 -120 0
745 120 0
-746 -36 0
746 36 0
-747 -123 0
747 123 0
-748 -10 0
748 10 0
-749 -126 0
749 126 0
-750 -129 0
750 129 0
-751 -37 0
751 37 0
-752 -132 0
752 132 0
-753 -22 0
753 22 0
-754 -39 0
754 39 0
-755 -135 0
755 135 0
-756 -138 0
756 138 0
-757 -41 0
757 41 0
-758 -42 0
758 42 0
-759 -141 0
759 141 0
-760 -144 0
760 144 0
-761 -147 0
761 147 0
-762 -150 0
762 150 0
-763 -153 0
763 153 0
-764 -156 0
764 156 0
-765 -29 0
765 29 0
-766 -159 0
766 159 0
-767 -162 0
767 162 0
-768 -165 0
768 165 0
-769 -168 0
769 168 0
-770 -38 0
770 38 0
-771 -171 0
771 171 0
-772 -27 0
772 27 0
-773 -174 0
773 174 0
-774 -177 0
774 177 0
-775 -180 0
775 180 0
-776 -183 0
776 183 0
-777 -186 0
777 186 0
-778 -33 0
778 33 0
-779 -189 0
779 189 0
-780 -192 0
780 192 0
-781 -47 0
781 47 0
-782 -195 0
782 195 0
-783 -48 0
783 48 0
-784 -198 0
784 198 0
-785 -201 0
785 201 0
-786 -204 0
786 204 0
-787 -207 0
787 207 0
-788 -32 0
788 32 0
-789 -210 0
789 210 0
-790 -213 0
790 213 0
-791 -216 0
791 216 0
-792 -219 0
792 219 0
-793 -222 0
793 222 0
-794 -49 0
794 49 0
-795 -28 0
795 28 0
-796 -225 0
796 225 0
-797 -23 0
797 23 0
-798 -31 0
798 31 0
-799 -228 0
799 228 0
-800 -231 0
800 231 0
-801 -35 0
801 35 0
-802 -234 0
802 234 0
-803 -237 0
803 237 0
-804 -240 0
804 240 0
-805 -243 0
805 243 0
-806 -246 0
806 246 0
-807 -14 0
807 14 0
-808 -249 0
808 249 0
-809 -252 0
809 252 0
-810 -255 0
810 255 0
-811 -258 0
811 258 0
-812 -261 0
812 261 0
-813 -264 0
813 264 0
-814 -267 0
814 267 0
-815 -50 0
815 50 0
-816 -270 0
816 270 0
-817 -273 0
817 273 0
-818 -276 0
818 276 0
-819 -279 0
819 279 0
-820 -282 0
820 282 0
-821 -285 0
821 285 0
-822 -45 0
822 45 0
-823 -288 0
823 288 0
-824 -291 0
824 291 0
-825 -294 0
825 294 0
-826 -297 0
826 297 0
-827 -40 0
827 40 0
-828 -300 0
828 300 0
-829 -43 0
829 43 0
-830 -303 0
830 303 0
-831 -306 0
831 306 0
-832 -309 0
832 309 0
-833 -312 0
833 312 0
-834 -46 0
834 46 0
-835 -315 0
835 315 0
-836 -318 0
836 318 0
-837 -321 0
837 321 0
-838 -324 0
838 324 0
-839 -327 0
839 327 0
-840 -330 0
840 330 0
-841 -333 0
841 333 0
-842 -336 0
842 336 0
-843 -339 0
843 339 0
-844 -342 0
844 342 0
-845 -345 0
845 345 0
-846 -348 0
846 348 0
-847 -351 0
847 351 0
-848 -354 0
848 354 0
-849 -357 0
849 357 0
-850 -360 0
850 360 0
-851 -363 0
851 363 0
-852 -366 0
852 366 0
-853 -369 0
853 369 0
-854 -372 0
854 372 0
-855 -44 0
855 44 0
-856 -375 0
856 375 0
-857 -378 0
857 378 0
-858 -381 0
858 381 0
-859 -384 0
859 384 0
-860 -387 0
860 387 0
-861 -390 0
861 390 0
-862 -393 0
862 393 0
-863 -396 0
863 396 0
-864 -399 0
864 399 0
-865 -402 0
865 402 0
-866 -405 0
866 405 0
-867 -408 0
867 408 0
-868 -411 0
868 411 0
-869 -414 0
869 414 0
-870 -417 0
870 417 0
-871 -420 0
871 420 0
-872 -423 0
872 423 0
-873 -426 0
873 426 0
-874 -429 0
874 429 0
-875 -432 0
875 432 0
-876 -435 0
876 435 0
-877 -438 0
877 438 0
-878 -441 0
878 441 0
-879 -444 0
879 444 0
-880 -447 0
880 447 0
-881 -450 0
881 450 0
-882 -453 0
882 453 0
-883 -456 0
883 456 0
-884 -459 0
884 459 0
-885 -462 0
885 462 0
-886 -465 0
886 465 0
-887 -468 0
887 468 0
-888 -471 0
888 471 0
-889 -474 0
889 474 0
-890 -477 0
890 477 0
-891 -480 0
891 480 0
-892 -483 0
892 483 0
-893 -486 0
893 486 0
-894 -489 0
894 489 0
-895 -492 0
895 492 0
-896 -495 0
896 495 0
-897 -498 0
897 498 0
-898 -501 0
898 501 0
-899 -504 0
899 504 0
-900 -507 0
900 507 0
-901 -509 0
901 509 0
-902 -512 0
902 512 0
-903 -515 0
903 515 0
-904 -518 0
904 518 0
-905 -521 0
905 521 0
-906 -524 0
906 524 0
-907 -527 0
907 527 0
-908 -530 0
908 530 0
-909 -532 0
909 532 0
-910 -535 0
910 535 0
-911 -538 0
911 538 0
-912 -541 0
912 541 0
-913 -544 0
913 544 0
-914 -546 0
914 546 0
-915 -549 0
915 549 0
-916 -552 0
916 552 0
-917 -555 0
917 555 0
-918 -558 0
918 558 0
-919 -561 0
919 561 0
-920 -564 0
920 564 0
-921 -567 0
921 567 0
-922 -569 0
922 569 0
-923 -572 0
923 572 0
-924 -575 0
924 575 0
-925 -578 0
925 578 0
-926 -581 0
926 581 0
-927 -584 0
927 584 0
-928 -587 0
928 587 0
-929 -590 0
929 590 0
-930 -593 0
930 593 0
-931 -596 0
931 596 0
-932 -599 0
932 599 0
-933 -602 0
933 602 0
-934 -605 0
934 605 0
-935 -608 0
935 608 0
-936 -611 0
936 611 0
-937 -614 0
937 614 0
-938 -617 0
938 617 0
-939 -620 0
939 620 0
-940 -623 0
940 623 0
-941 -626 0
941 626 0
-942 -629 0
942 629 0
-943 -632 0
943 632 0
-944 -635 0
944 635 0
-945 -638 0
945 638 0
-946 -641 0
946 641 0
-947 -644 0
947 644 0
-948 -647 0
948 647 0
-949 -650 0
949 650 0
-950 -653 0
950 653 0
-951 -656 0
951 656 0
-952 -658 0
952 658 0
-953 -661 0
953 661 0
-954 -664 0
954 664 0
-955 -667 0
955 667 0
-956 -670 0
956 670 0
-957 -673 0
957 673 0
-958 -676 0
958 676 0
-959 -679 0
959 679 0
-960 -682 0
960 682 0
-961 -685 0
961 685 0
-962 -688 0
962 688 0
-963 -16 0
963 16 0
-964 -691 0
964 691 0
-965 -694 0
965 694 0
-966 -697 0
966 697 0
698 0
